************************************************************************
file with basedata            : md381_.bas
initial value random generator: 2105930577
************************************************************************
projects                      :  1
jobs (incl. supersource/sink ):  22
horizon                       :  160
RESOURCES
  - renewable                 :  2   R
  - nonrenewable              :  2   N
  - doubly constrained        :  0   D
************************************************************************
PROJECT INFORMATION:
pronr.  #jobs rel.date duedate tardcost  MPM-Time
    1     20      0       24        3       24
************************************************************************
PRECEDENCE RELATIONS:
jobnr.    #modes  #successors   successors
   1        1          3           2   3   4
   2        3          3           6  11  18
   3        3          2          12  17
   4        3          3           5   7   8
   5        3          2           9  19
   6        3          3           9  15  17
   7        3          3          10  11  17
   8        3          2          11  13
   9        3          1          21
  10        3          3          12  14  21
  11        3          2          15  16
  12        3          2          13  20
  13        3          2          15  16
  14        3          1          16
  15        3          1          19
  16        3          1          19
  17        3          1          20
  18        3          2          20  21
  19        3          1          22
  20        3          1          22
  21        3          1          22
  22        1          0        
************************************************************************
REQUESTS/DURATIONS:
jobnr. mode duration  R 1  R 2  N 1  N 2
------------------------------------------------------------------------
  1      1     0       0    0    0    0
  2      1     7       6    6   10    4
         2     9       5    2    6    3
         3     9       5    3    5    2
  3      1     2       5    7    7    8
         2     7       3    7    4    7
         3     9       1    3    3    6
  4      1     7       9    7    5    8
         2     8       8    4    4    6
         3     8       9    3    4    6
  5      1     1       3    6    9    6
         2     5       3    5    6    3
         3     9       2    3    3    3
  6      1     3       9    4    9    9
         2     7       4    3    9    8
         3    10       4    3    8    7
  7      1     2      10    4    6    9
         2     6       6    4    5    9
         3     7       3    3    5    9
  8      1     4       5    7    7    8
         2     6       4    7    5    5
         3     8       4    6    3    4
  9      1     2       9    9    2    6
         2     3       9    8    1    5
         3     4       8    8    1    5
 10      1     2       7    7    2    7
         2     7       6    7    2    5
         3     9       6    7    2    2
 11      1     1      10    7    8    2
         2     3       9    6    7    1
         3     5       9    5    7    1
 12      1     4       4    3   10    9
         2     7       2    3    6    6
         3     8       2    1    2    5
 13      1     4       9    9    2    7
         2     6       6    8    2    7
         3     9       2    8    1    6
 14      1     2       3    6    7    9
         2     5       3    6    7    7
         3     7       2    5    7    4
 15      1     3       4    9    7    4
         2     8       4    8    6    3
         3     9       4    8    3    1
 16      1     3      10    7    6    8
         2     3       9    7    7    8
         3     9       7    3    5    8
 17      1     6       4    3   10    1
         2     7       3    2    9    1
         3     8       1    2    7    1
 18      1     5       4    8    6    9
         2     6       3    6    5    7
         3     9       3    3    5    6
 19      1     2       4    7    4    8
         2     2       4    8    3    8
         3     8       3    3    2    7
 20      1     6       9    2    7    6
         2     8       2    1    6    6
         3     8       6    1    6    5
 21      1     2       8    3   10    8
         2     3       6    3    9    7
         3     7       4    2    9    4
 22      1     0       0    0    0    0
************************************************************************
RESOURCEAVAILABILITIES:
  R 1  R 2  N 1  N 2
   15   15  135  136
************************************************************************
